\ENCODING=ISO-8859-1
\Problem name: ilog.cplex

Minimize
 obj1: 2147483647 x_0_0_0 + x_0_1_0 + 2147483647 x_0_2_0 + x_0_3_0 + x_1_0_0
       + 2147483647 x_2_0_0 + 50 x_3_0_0 + 2147483647 x_1_1_0 + x_1_2_0
       + 2147483647 x_1_3_0 + x_2_1_0 + 2147483647 x_3_1_0 + 2147483647 x_2_2_0
       + 100 x_2_3_0 + 100 x_3_2_0 + 2147483647 x_3_3_0
Subject To
 flow_0_0:   x_0_1_0 + x_0_2_0 + x_0_3_0 - x_1_0_0 - x_2_0_0 - x_3_0_0  = 0
 flow_1_0:   - x_0_1_0 + x_1_0_0 + x_1_2_0 + x_1_3_0 - x_2_1_0 - x_3_1_0  = 0
 flow_2_0:   - x_0_2_0 + x_2_0_0 - x_1_2_0 + x_2_1_0 + x_2_3_0 - x_3_2_0  = 0
 flow_3_0:   - x_0_3_0 + x_3_0_0 - x_1_3_0 + x_3_1_0 - x_2_3_0 + x_3_2_0  = 0
 serving_0:  y_0_0  = 1
 serving_1:  y_1_0  = 1
 depot_0:    x_0_0_0 + x_0_1_0 + x_0_2_0 + x_0_3_0 <= 1
 visit_0_0:  - x_0_1_0 - x_1_1_0 - x_2_1_0 - x_3_1_0 + y_0_0 <= 0
 visit_1_0:  - x_0_2_0 - x_1_2_0 - x_2_2_0 - x_3_2_0 + y_1_0 <= 0
 capacity_0: 20 y_0_0 + 20 y_1_0 <= 100
 mtz_1_2_0:  3 x_1_2_0 + u_1_0 - u_2_0 <= 2
 mtz_1_3_0:  3 x_1_3_0 + u_1_0 - u_3_0 <= 2
 mtz_2_1_0:  3 x_2_1_0 - u_1_0 + u_2_0 <= 2
 mtz_2_3_0:  3 x_2_3_0 + u_2_0 - u_3_0 <= 2
 mtz_3_1_0:  3 x_3_1_0 - u_1_0 + u_3_0 <= 2
 mtz_3_2_0:  3 x_3_2_0 - u_2_0 + u_3_0 <= 2
Bounds
 0 <= x_0_0_0 <= 1
 0 <= x_0_1_0 <= 1
 0 <= x_0_2_0 <= 1
 0 <= x_0_3_0 <= 1
 0 <= x_1_0_0 <= 1
 0 <= x_2_0_0 <= 1
 0 <= x_3_0_0 <= 1
 0 <= x_1_1_0 <= 1
 0 <= x_1_2_0 <= 1
 0 <= x_1_3_0 <= 1
 0 <= x_2_1_0 <= 1
 0 <= x_3_1_0 <= 1
 0 <= x_2_2_0 <= 1
 0 <= x_2_3_0 <= 1
 0 <= x_3_2_0 <= 1
 0 <= x_3_3_0 <= 1
 0 <= y_0_0 <= 1
 0 <= y_1_0 <= 1
 1 <= u_1_0 <= 3
 1 <= u_2_0 <= 3
 1 <= u_3_0 <= 3
Binaries
 x_0_0_0  x_0_1_0  x_0_2_0  x_0_3_0  x_1_0_0  x_2_0_0  x_3_0_0  x_1_1_0 
 x_1_2_0  x_1_3_0  x_2_1_0  x_3_1_0  x_2_2_0  x_2_3_0  x_3_2_0  x_3_3_0  y_0_0 
 y_1_0 
Generals
 u_1_0  u_2_0  u_3_0 
End
